path1.sol
Path 1 - Roads
z = 2100.0
x12 = 0.0
x13 = 0.0
x14 = 1.0
x25 = 0.0
x26 = 0.0
x35 = 0.0
x36 = 0.0
x46 = 0.0
x47 = 0.0
x58 = 1.0
x65 = 1.0
x67 = 0.0
x68 = 0.0
x78 = 0.0
